NAME : wi6
TYPE : TSP
DIMENSION : 6
EDGE_WEIGHT_TYPE : EUC_2D
NODE_COORD_SECTION
1 23700.0000 15933.3333
2 23883.3333 14533.3333
3 24166.6667 13250.0000
4 25149.1667 12365.8333
5 26133.3333 14500.0000
6 26283.3333 12766.6667